p cnf 76 54
d 0.875 0.125
d 0.875 0.125
d 0.875 0.125
d 0.875 0.125
d 0.875 0.125
d 0.875 0.125
d 0.875 0.125
d 0.875 0.125
d 0.875 0.125
d 0.875 0.125
d 0.875 0.125
d 0.875 0.125
d 0.875 0.125
d 0.875 0.125
d 0.875 0.125
d 0.875 0.125
d 0.875 0.125
d 0.875 0.125
d 0.875 0.125
d 0.875 0.125
d 0.875 0.125
d 0.875 0.125
d 0.875 0.125
d 0.875 0.125
d 0.875 0.125
d 0.875 0.125
75
-54
68 -65 -0
65 -68 -0
64 -62 -2
62 -64 -2
65 -70 -4
70 -65 -4
68 -54 -6
54 -68 -6
53 -66 -8
66 -53 -8
64 -55 -10
55 -64 -10
71 -67 -12
67 -71 -12
71 -63 -14
63 -71 -14
52 -57 -16
57 -52 -16
64 -73 -18
73 -64 -18
58 -54 -20
54 -58 -20
71 -73 -22
73 -71 -22
64 -63 -24
63 -64 -24
62 -66 -26
66 -62 -26
65 -68 -28
68 -65 -28
62 -69 -30
69 -62 -30
53 -75 -32
75 -53 -32
58 -66 -34
66 -58 -34
69 -52 -36
52 -69 -36
74 -66 -38
66 -74 -38
68 -63 -40
63 -68 -40
60 -65 -42
65 -60 -42
68 -57 -44
57 -68 -44
56 -55 -46
55 -56 -46
59 -66 -48
66 -59 -48
56 -55 -50
55 -56 -50